<instance format="XCSP3" type="CSP">
  <variables>
    <var id="x0"> 3 6 9 13 16 </var>
    <var id="x1"> 7 14 16 </var>
    <var id="x2"> 3 9 13 14 16 </var>
    <var id="x3"> 3 7 9 13 </var>
    <var id="x4"> 6 14 </var>
    <var id="x5"> 3 9 14 </var>
    <var id="x6"> 3 7 9 13 </var>
    <var id="x7"> 7 8 13 16 </var>
    <var id="x8"> 0 1 3 </var>
    <var id="x9"> 0 11 12 14 </var>
    <var id="x10"> 8 11 12 </var>
    <var id="x11"> 3 4 12 </var>
    <var id="x12"> 0 11 12 </var>
    <var id="x13"> 1 8 12 </var>
    <var id="x14"> 3 4 12 </var>
    <var id="x15"> 0 1 4 12 14 </var>
    <var id="x16"> 7 14 </var>
    <var id="x17"> 2 6 12 17 </var>
    <var id="x18"> 6 7 12 17 </var>
    <var id="x19"> 2 4 7 9 12 </var>
    <var id="x20"> 4 9 12 14 17 </var>
    <var id="x21"> 4 7 9 17 </var>
    <var id="x22"> 2 7 </var>
    <var id="x23"> 6 7 9 14 17 </var>
    <var id="x24"> 0 4 7 11 16 </var>
    <var id="x25"> 7 10..12 </var>
    <var id="x26"> 4 10 12 </var>
    <var id="x27"> 4 7 12 </var>
    <var id="x28"> 7 10 12 16 17 </var>
    <var id="x29"> 0 4 7 11 12 </var>
    <var id="x30"> 4 12 17 </var>
    <var id="x31"> 0 4 7 17 </var>
    <var id="x32"> 13 16 </var>
    <var id="x33"> 7 10 11 14 </var>
    <var id="x34"> 2 8 10 </var>
    <var id="x35"> 13 14 16 </var>
    <var id="x36"> 7 8 10 16 </var>
    <var id="x37"> 10 14 </var>
    <var id="x38"> 2 7 8 11 13 16 </var>
    <var id="x39"> 7 8 14 </var>
    <var id="x40"> 0 6 13 16 </var>
    <var id="x41"> 0 6 16 </var>
    <var id="x42"> 2 5 6 12 </var>
    <var id="x43"> 6 12 </var>
    <var id="x44"> 0 2 12 13 16 </var>
    <var id="x45"> 12 17 </var>
    <var id="x46"> 0 13 17 </var>
    <var id="x47"> 0 2 13 16 </var>
    <var id="x48"> 0 6 9 </var>
    <var id="x49"> 0 2 10 12 </var>
    <var id="x50"> 0 2 12 13 </var>
    <var id="x51"> 2 6 10 12 </var>
    <var id="x52"> 0 9 12 13 </var>
    <var id="x53"> 5 6 10 12 </var>
    <var id="x54"> 5 6 12 13 </var>
    <var id="x55"> 0 6 9 </var>
    <var id="x56"> 0 1 9 </var>
    <var id="x57"> 0 1 5 7 </var>
    <var id="x58"> 2 5 7 12 </var>
    <var id="x59"> 0 2 7 12 </var>
    <var id="x60"> 5 7 9 12 </var>
    <var id="x61"> 5 7 12 17 </var>
    <var id="x62"> 1 9 12 17 </var>
    <var id="x63"> 0 7 9 17 </var>
    <var id="x64"> 0 4 6 7 11 14 </var>
    <var id="x65"> 4 6 10 12 </var>
    <var id="x66"> 6 10 12 </var>
    <var id="x67"> 6 7 10 12 </var>
    <var id="x68"> 0 4 6 10 12 14 </var>
    <var id="x69"> 0 4 7 </var>
    <var id="x70"> 0 7 11 </var>
    <var id="x71"> 4 6 12 </var>
    <var id="x72"> 1 15 </var>
    <var id="x73"> 0 1 3 9 13 </var>
    <var id="x74"> 3 7 9 13 15 </var>
    <var id="x75"> 0 1 </var>
    <var id="x76"> 0 7 9 13 </var>
    <var id="x77"> 0 1 3 7 9 13 </var>
    <var id="x78"> 3 13 </var>
    <var id="x79"> 0 3 5 </var>
    <var id="x80"> 0 4 </var>
    <var id="x81"> 0 13 15 </var>
    <var id="x82"> 8 15 </var>
    <var id="x83"> 0 4 5 </var>
    <var id="x84"> 3 4 15 </var>
    <var id="x85"> 0 8 13 15 </var>
    <var id="x86"> 0 3 13 16 </var>
    <var id="x87"> 0 7 16 </var>
    <var id="x88"> 0 7 12 16 </var>
    <var id="x89"> 7 8 12 </var>
    <var id="x90"> 3 12 15 </var>
    <var id="x91"> 0 7 12 13 15 16 </var>
    <var id="x92"> 0 7 12 13 </var>
    <var id="x93"> 3 8 12 13 </var>
    <var id="x94"> 1 3 7 10 </var>
    <var id="x95"> 4 7 9 16 </var>
    <var id="x96"> 3 4 9 10 12 </var>
    <var id="x97"> 7 12 16 </var>
    <var id="x98"> 3 4 7 9 12 </var>
    <var id="x99"> 1 4 10 12 </var>
    <var id="x100"> 1 3 4 9 12 </var>
    <var id="x101"> 7 9 </var>
    <var id="x102"> 0 1 7 11 </var>
    <var id="x103"> 0 7 11 12 </var>
    <var id="x104"> 6 7 11 12 </var>
    <var id="x105"> 0 1 12 </var>
    <var id="x106"> 0 7 11 12 </var>
    <var id="x107"> 1 12 15 17 </var>
    <var id="x108"> 6 12 17 </var>
    <var id="x109"> 0 6 7 17 </var>
    <var id="x110"> 3 10 </var>
    <var id="x111"> 10 12 </var>
    <var id="x112"> 6 10 12 15 17 </var>
    <var id="x113"> 3 9 12 13 </var>
    <var id="x114"> 3 9 12 13 15 </var>
    <var id="x115"> 6 10 12 17 </var>
    <var id="x116"> 9 12 13 </var>
    <var id="x117"> 3 9 13 17 </var>
    <var id="x118"> 0 4 6 9 14 </var>
    <var id="x119"> 0 10 14 </var>
    <var id="x120"> 6 10 </var>
    <var id="x121"> 4 6 9 10 15 </var>
    <var id="x122"> 0 1 9 14 </var>
    <var id="x123"> 0 15 </var>
    <var id="x124"> 4 6 </var>
    <var id="x125"> 0 6 9 14 </var>
    <var id="x126"> 3 9 </var>
    <var id="x127"> 2 11 12 14 </var>
    <var id="x128"> 2 11 12 </var>
    <var id="x129"> 5 12 14 </var>
    <var id="x130"> 2 9 11 12 </var>
    <var id="x131"> 2 11 </var>
    <var id="x132"> 3 5 12 </var>
    <var id="x133"> 1 5 7 11 </var>
    <var id="x134"> 5..8 11 </var>
    <var id="x135"> 1 16 </var>
    <var id="x136"> 4 5 7 </var>
    <var id="x137"> 5..8 16 </var>
    <var id="x138"> 4 7 11 </var>
    <var id="x139"> 1 4 7 </var>
    <var id="x140"> 4..6 8 </var>
  </variables>
  <constraints>
    <group>
      <allDifferent> %... </allDifferent>
      <args> x0 x1 x2 x3 x4 x5 x6 x7 </args>
      <args> x8 x9 x10 x11 x12 x13 x14 x15 </args>
      <args> x16 x17 x18 x19 x20 x21 x22 x23 </args>
      <args> x24 x25 x26 x27 x28 x29 x30 x31 </args>
      <args> x32 x33 x34 x35 x36 x37 x38 x39 </args>
      <args> x40 x41 x42 x43 x44 x45 x46 x47 </args>
      <args> x48 x49 x50 x51 x52 x53 x54 x55 </args>
      <args> x56 x57 x58 x59 x60 x61 x62 x63 </args>
      <args> x64 x65 x66 x67 x68 x69 x70 x71 </args>
      <args> x72 x73 x74 x75 x76 x77 x78 </args>
      <args> x79 x80 x81 x82 x83 x84 x85 </args>
      <args> x86 x87 x88 x89 x90 x91 x92 x93 </args>
      <args> x94 x95 x96 x97 x98 x99 x100 x101 </args>
      <args> x102 x103 x104 x105 x106 x107 x108 x109 </args>
      <args> x110 x111 x112 x113 x114 x115 x116 x117 </args>
      <args> x118 x119 x120 x121 x122 x123 x124 x125 </args>
      <args> x126 x127 x128 x129 x130 x131 x132 </args>
      <args> x133 x134 x135 x136 x137 x138 x139 x140 </args>
      <args> x0 x8 x32 x40 x56 x86 x126 </args>
      <args> x16 x33 x57 x79 x94 x102 x110 x133 </args>
      <args> x24 x41 x48 x64 x80 x87 x95 x118 </args>
      <args> x1 x9 x49 x88 x103 x111 x119 x127 </args>
      <args> x10 x25 x42 x58 x89 x104 x120 x134 </args>
      <args> x11 x26 x43 x65 x90 x96 x121 </args>
      <args> x12 x44 x50 x59 x81 x91 x97 x128 </args>
      <args> x13 x17 x34 x51 x66 x72 x82 x112 </args>
      <args> x2 x35 x52 x73 x105 x113 x122 x135 </args>
      <args> x3 x14 x27 x60 x74 x98 x114 x136 </args>
      <args> x18 x28 x36 x53 x61 x67 x115 x137 </args>
      <args> x4 x15 x37 x68 x75 x83 x99 x129 </args>
      <args> x19 x29 x76 x92 x106 x116 x130 x138 </args>
      <args> x5 x20 x30 x45 x62 x84 x100 x107 </args>
      <args> x6 x21 x31 x46 x69 x77 x117 x139 </args>
      <args> x7 x22 x38 x47 x70 x85 x123 x131 </args>
      <args> x54 x71 x78 x93 x108 x124 x132 x140 </args>
      <args> x23 x39 x55 x63 x101 x109 x125 </args>
    </group>
  </constraints>
</instance>

